c  Si la licorne est mythique, alors elle est immortelle ; si elle nʼest 
c pas mythique, cʼest un mammifère mortel. Si la licorne est un mammifère 
c ou si elle est immortelle, voire les deux, alors elle a une corne. La licorne est 
c magique si elle a une corne.
c 
c Myt = 1
c Mor = 2
c Mam = 3
c Cor = 4
c Mag = 5
c
p cnf 5 7
-1 -2 0
1 3 0
1 2 0
-3 4 0
2 4 0
-4 5 0
1 0
